100
32
26
3
28
1
12
26
15
3
26
8
1
1
8
27
28
31
19
7
8
26
11
17
13
23
11
10
1
14
4
2
13
10
10
14
1
12
3
3
1
5
5
2
2
12
11
2
13
1
11
16
10
3
13
2
12
6
13
23
9
6
2
1
3
18
3
2
18
18
5
4
19
7
2
1
1
2
1
15
5
1
16
9
18
4
2
7
20
23
10
1
1
6
1
6
5
3
3
2
4
7